(set-logic QF_BV)
(declare-fun _substvar_103_ () (_ BitVec 79))
(declare-fun _substvar_308_ () Bool)
(declare-fun _substvar_249_ () (_ BitVec 79))
(declare-fun _substvar_229_ () (_ BitVec 79))
(declare-fun _substvar_238_ () (_ BitVec 79))
(assert (and true true true true true true true true true true true true true true true true true true true true true true true true true true true true true true true true true true true true true true true true true true true true true true true true true true true true true true true true true true true true true true true true true true true true true true true true true true true true true true true true true true true true true true true true true true true true true true true true true true true true true true true true true true true true true true true true true true true true true true true true true true true true true true true true true true true true true true true true true true true true true true true true true true true true true true true true true true true true (= _substvar_249_ (_ bv0 79)) (ite _substvar_308_ (= _substvar_229_ (_ bv0 79)) (= _substvar_229_ (concat (_ bv0 78) (bvxor (_ bv0 1) ((_ extract 69 69) _substvar_249_))))) (= _substvar_238_ (concat ((_ extract 77 0) _substvar_229_) (bvxor ((_ extract 78 78) _substvar_229_) ((_ extract 69 69) _substvar_229_)))) (= _substvar_103_ (concat ((_ extract 77 0) _substvar_238_) (_ bv0 1))) true true true true true true true true true true true true true true true true true true true true true true true true true true true true true true true true true true true true true true true true true true true true true true true true true true true true true true true true true true true true true true true true true true true true true true true true true true true true true true true true true true true true true true true true true true true true true true true true true true true true true true true true true true true true true true true true true true true true true true true true true true true true true true true true true true true true true true true true true true true true true true true true true true true true true true true true true true true true true true true true true true true true true true true true true true (= (= (_ bv0 79) _substvar_103_) false)))
(check-sat)
(exit)
